
Gurobi 10.0.2 (linux64) logging started Thu 18 Jul 2024 11:08:32 PM -05

Set parameter LogFile to value "gurobi.log"
Gurobi Optimizer version 10.0.2 build v10.0.2rc0 (linux64)

CPU model: Intel(R) Core(TM) i5-1035G1 CPU @ 1.00GHz, instruction set [SSE2|AVX|AVX2|AVX512]
Thread count: 4 physical cores, 8 logical processors, using up to 8 threads

Academic license 2446675 - for non-commercial use only - registered to mi___@epn.edu.ec
Optimize a model with 4893 rows, 2280 columns and 16762 nonzeros
Model fingerprint: 0x23f3ea98
Variable types: 0 continuous, 2280 integer (0 binary)
Coefficient statistics:
  Matrix range     [5e-01, 8e+01]
  Objective range  [1e+00, 1e+00]
  Bounds range     [1e+00, 2e+03]
  RHS range        [1e+00, 2e+03]
Found heuristic solution: objective 57721.000000
Presolve removed 4855 rows and 2210 columns
Presolve time: 0.03s
Presolved: 38 rows, 70 columns, 154 nonzeros
Found heuristic solution: objective 57779.000000
Variable types: 0 continuous, 70 integer (30 binary)

Root relaxation: objective 5.778900e+04, 6 iterations, 0.00 seconds (0.00 work units)

    Nodes    |    Current Node    |     Objective Bounds      |     Work
 Expl Unexpl |  Obj  Depth IntInf | Incumbent    BestBd   Gap | It/Node Time

*    0     0               0    57789.000000 57789.0000  0.00%     -    0s

Explored 1 nodes (6 simplex iterations) in 0.04 seconds (0.01 work units)
Thread count was 8 (of 8 available processors)

Solution count 3: 57789 57779 57721 

Optimal solution found (tolerance 1.00e-04)
Best objective 5.778900000000e+04, best bound 5.778900000000e+04, gap 0.0000%
